Test: battleship-10-19-sat.cnf
Options: -no-inverting-opt -activity-nl-freq=1
WARNING: for repeatability, setting FPU to use double precision
============================[ Problem Statistics ]=============================
|                                                                             |
|  Number of symmetries:           15                                         |
|  Number of invertingSyms:         0                                         |
|  Number of variables:           190                                         |
|  Number of clauses:             955                                         |
|  Parse time:                   0.00 s                                       |
|                                                                             |
============================[ Search Statistics ]==============================
| Conflicts |          ORIGINAL         |          LEARNT          | Progress |
|           |    Vars  Clauses Literals |    Limit  Clauses Lit/Cl |          |
===============================================================================
|       100 |     190      955     3610 |      350      100     71 |  0.003 % |
===============================================================================
restarts              : 2
conflicts             : 186            (46500 /sec)
symconflicts          : 1              (250 /sec)
decisions             : 597            (0.00 % random) (149250 /sec)
propagations          : 3360           (840000 /sec)
sympropagations       : 11             (2750 /sec)
conflict literals     : 12039          (1.13 % deleted)
literals     : 12039          (1.13 % deleted)

HEURISTIC USAGES
random                : 0           
activity w/ lookahead : 0           
activity no lookahead : 596         
original sp           : 0           
sym count             : 0           

Memory used           : 5.00 MB
CPU time              : 0.004 s

SATISFIABLE
